65
64
50
73
0
41
112
88
67
63
57
62
95
98
52
82
78
146
80
92
54
64
0
44
191
82
59
68
0
95
101
47
56
64
54
49
61
84
55
82
67
67
48
71
73
84
0
70
74
109
105
73
57
50
44
55
88
0
66
74
80
59
66
46
0
0
63
73
90
89
71
71
63
57
126
54
96
83
91
52
114
58
74
74
184
56
55
78
82
53
54
92
70
66
67
73
54
81
82
0
